Minimize
  - 11 y_0 - 6 y_1 - 9 y_2 - 5 y_3 - 9 y_4 - 7 y_6 - 9 y_7 - 8 y_9 - 6 y_10
   - 11 y_11 - 10 y_12 - 9 y_13 - 5 y_14 - 6 y_15 - 8 y_16 - 11 y_17
   - 4 y_18 - 7 y_19 + 97 x_0_4 + 41 x_0_11 + 88 x_0_15 + 58 x_0_16
   + 41 x_0_19 + 63 x_1_5 + 19 x_1_6 + 43 x_1_7 + 82 x_1_9 + 58 x_1_10
   + 73 x_1_11 + 92 x_1_12 + 29 x_1_14 + 52 x_1_16 + 16 x_1_19 + 86 x_2_8
   + 28 x_2_10 + 42 x_2_12 + 41 x_2_15 + 21 x_2_17 + 43 x_2_18 + 47 x_2_19
   + 31 x_3_16 + 11 x_3_18 + 70 x_4_7 + 33 x_4_10 + 7 x_4_12 + 82 x_4_13
   + 67 x_4_14 + 51 x_4_18 + 91 x_5_7 + x_5_8 + 114 x_5_11 + 107 x_5_17
   + 85 x_6_11 + 28 x_6_19 + 90 x_7_8 + 63 x_7_9 + 33 x_7_17 + 54 x_7_18
   + 64 x_8_10 + 107 x_8_17 + 58 x_9_14 + 29 x_9_15 + 47 x_9_17 + 77 x_9_19
   + 36 x_10_12 + 57 x_10_13 + 34 x_10_14 + 70 x_11_14 + 72 x_11_18
   + 47 x_13_14 + 45 x_13_17 + 19 x_14_18 + 60 x_15_17 + 44 x_16_19
   + 50 x_18_19 + 141 Constant
Subject To
 c_0: y_12 = 1
 c_1_0: y_0 >= 1
 c_1_1: y_1 + y_6 + y_19 >= 1
 c_1_2: y_2 + y_16 >= 1
 c_1_3: y_3 + y_10 + y_15 + y_18 >= 1
 c_1_4: y_4 + y_9 + y_12 >= 1
 c_1_5: y_5 + y_8 >= 1
 c_1_6: y_1 + y_6 >= 1
 c_1_7: y_7 + y_13 >= 1
 c_1_8: y_5 + y_8 >= 1
 c_1_9: y_4 + y_9 + y_12 >= 1
 c_1_10: y_3 + y_10 + y_15 >= 1
 c_1_11: y_11 + y_17 >= 1
 c_1_12: y_4 + y_9 + y_12 >= 1
 c_1_13: y_7 + y_13 >= 1
 c_1_14: y_14 + y_18 >= 1
 c_1_15: y_3 + y_10 + y_15 + y_18 >= 1
 c_1_16: y_2 + y_16 >= 1
 c_1_17: y_11 + y_17 >= 1
 c_1_18: y_3 + y_14 + y_15 + y_18 >= 1
 c_1_19: y_1 + y_19 >= 1
 c_2_0: - 2 y_0 + x_0_4 + x_0_11 + x_0_15 + x_0_16 + x_0_19 = 0
 c_2_1: - 2 y_1 + x_1_5 + x_1_6 + x_1_7 + x_1_9 + x_1_10 + x_1_11 + x_1_12
   + x_1_14 + x_1_16 + x_1_19 = 0
 c_2_2: - 2 y_2 + x_2_8 + x_2_10 + x_2_12 + x_2_15 + x_2_17 + x_2_18
   + x_2_19 = 0
 c_2_3: - 2 y_3 + x_3_16 + x_3_18 = 0
 c_2_4: - 2 y_4 + x_0_4 + x_4_7 + x_4_10 + x_4_12 + x_4_13 + x_4_14
   + x_4_18 = 0
 c_2_5: - 2 y_5 + x_1_5 + x_5_7 + x_5_8 + x_5_11 + x_5_17 = 0
 c_2_6: - 2 y_6 + x_1_6 + x_6_11 + x_6_19 = 0
 c_2_7: - 2 y_7 + x_1_7 + x_4_7 + x_5_7 + x_7_8 + x_7_9 + x_7_17 + x_7_18
   = 0
 c_2_8: - 2 y_8 + x_2_8 + x_5_8 + x_7_8 + x_8_10 + x_8_17 = 0
 c_2_9: - 2 y_9 + x_1_9 + x_7_9 + x_9_14 + x_9_15 + x_9_17 + x_9_19 = 0
 c_2_10: - 2 y_10 + x_1_10 + x_2_10 + x_4_10 + x_8_10 + x_10_12 + x_10_13
   + x_10_14 = 0
 c_2_11: - 2 y_11 + x_0_11 + x_1_11 + x_5_11 + x_6_11 + x_11_14 + x_11_18
   = 0
 c_2_12: - 2 y_12 + x_1_12 + x_2_12 + x_4_12 + x_10_12 = 0
 c_2_13: - 2 y_13 + x_4_13 + x_10_13 + x_13_14 + x_13_17 = 0
 c_2_14: - 2 y_14 + x_1_14 + x_4_14 + x_9_14 + x_10_14 + x_11_14 + x_13_14
   + x_14_18 = 0
 c_2_15: - 2 y_15 + x_0_15 + x_2_15 + x_9_15 + x_15_17 = 0
 c_2_16: - 2 y_16 + x_0_16 + x_1_16 + x_3_16 + x_16_19 = 0
 c_2_17: - 2 y_17 + x_2_17 + x_5_17 + x_7_17 + x_8_17 + x_9_17 + x_13_17
   + x_15_17 = 0
 c_2_18: - 2 y_18 + x_2_18 + x_3_18 + x_4_18 + x_7_18 + x_11_18 + x_14_18
   + x_18_19 = 0
 c_2_19: - 2 y_19 + x_0_19 + x_1_19 + x_2_19 + x_6_19 + x_9_19 + x_16_19
   + x_18_19 = 0
Bounds
 Constant = 1
Binaries
 y_0 y_1 y_2 y_3 y_4 y_5 y_6 y_7 y_8 y_9 y_10 y_11 y_12 y_13 y_14 y_15 y_16
 y_17 y_18 y_19 x_0_4 x_0_11 x_0_15 x_0_16 x_0_19 x_1_5 x_1_6 x_1_7 x_1_9
 x_1_10 x_1_11 x_1_12 x_1_14 x_1_16 x_1_19 x_2_8 x_2_10 x_2_12 x_2_15
 x_2_17 x_2_18 x_2_19 x_3_16 x_3_18 x_4_7 x_4_10 x_4_12 x_4_13 x_4_14
 x_4_18 x_5_7 x_5_8 x_5_11 x_5_17 x_6_11 x_6_19 x_7_8 x_7_9 x_7_17 x_7_18
 x_8_10 x_8_17 x_9_14 x_9_15 x_9_17 x_9_19 x_10_12 x_10_13 x_10_14 x_11_14
 x_11_18 x_13_14 x_13_17 x_14_18 x_15_17 x_16_19 x_18_19
End
